50

91 38 190
88 43 370
88 3 184
87 34 382
87 33 367
86 10 281
86 32 302
85 23 302
85 15 458
84 29 470
83 31 247
80 19 249
79 0 181
78 38 424
77 29 243
70 22 270
70 28 339
68 0 409
67 24 466
66 5 292
59 3 353
52 15 466
49 4 448
48 17 428
47 2 484
47 6 243
44 10 382
42 16 427
38 19 372
37 7 292
37 9 301
34 13 188
34 15 472
33 15 272
31 15 461
29 3 340
27 7 188
24 5 395
21 6 394
17 5 249
16 8 429
16 6 227
15 1 448
14 4 263
8 0 252
6 0 308
5 0 450
4 0 202
2 0 204
2 1 493
